nK = 2075;
nT = 8;
nI = 21;
L = 29;
TT = 448;
np = 1;
nc = 3;
b = [54, 21, 33, 54, 51, 20, 35, 51, 59, 58, 53, 58, 69, 34, 33, 40, 33, 48, 52, 23, 44];
d = [138, 62, 144, 116, 110, 128, 91, 124, 90, 97, 90, 130, 126, 54, 102, 120, 92, 113, 84, 106, 79];
m = [2, 2.1, 1.3, 1.3, 1, 2.1, 1.6, 1.1, 2.3, 1.6, 1.9, 1.6, 2.2, 1.8, 1.4, 1.1, 1.5, 1.1, 2.5, 1.1, 1.7];
pt = [0.29, 0.26, 0.33, 0.27, 0.21, 0.3, 0.32, 0.28];
st = [15.08, 15.34, 13.2, 13.77, 12.18, 17.4, 13.44, 11.48];
arc = {<1, 0, 1, 1, 0, 0, 0, [1, 1, 1, 1, 1, 1, 1, 1]>, <2, 1, 2, 1, 0, 0, 0, [1, 1, 1, 1, 1, 1, 1, 1]>, <3, 2, 3, 1, 0, 0, 0, [1, 1, 1, 1, 1, 1, 1, 1]>, <4, 3, 4, 1, 0, 0, 0, [1, 1, 1, 1, 1, 1, 1, 1]>, <5, 4, 5, 1, 0, 0, 0, [1, 1, 1, 1, 1, 1, 1, 1]>, <6, 5, 6, 1, 0, 0, 0, [1, 1, 1, 1, 1, 1, 1, 1]>, <7, 6, 7, 1, 0, 0, 0, [1, 1, 1, 1, 1, 1, 1, 1]>, <8, 7, 8, 1, 0, 0, 0, [1, 1, 1, 1, 1, 1, 1, 1]>, <9, 8, 9, 1, 0, 0, 0, [1, 1, 1, 1, 1, 1, 1, 1]>, <10, 9, 10, 1, 0, 0, 0, [1, 1, 1, 1, 1, 1, 1, 1]>, <11, 10, 11, 1, 0, 0, 0, [1, 1, 1, 1, 1, 1, 1, 1]>, <12, 11, 12, 1, 0, 0, 0, [1, 1, 1, 1, 1, 1, 1, 1]>, <13, 12, 13, 1, 0, 0, 0, [1, 1, 1, 1, 1, 1, 1, 1]>, <14, 13, 14, 1, 0, 0, 0, [1, 1, 1, 1, 1, 1, 1, 1]>, <15, 14, 15, 1, 0, 0, 0, [1, 1, 1, 1, 1, 1, 1, 1]>, <16, 15, 16, 1, 0, 0, 0, [1, 1, 1, 1, 1, 1, 1, 1]>, <17, 16, 17, 1, 0, 0, 0, [1, 1, 1, 1, 1, 1, 1, 1]>, <18, 17, 18, 1, 0, 0, 0, [1, 1, 1, 1, 1, 1, 1, 1]>, <19, 18, 19, 1, 0, 0, 0, [1, 1, 1, 1, 1, 1, 1, 1]>, <20, 19, 20, 1, 0, 0, 0, [1, 1, 1, 1, 1, 1, 1, 1]>, <21, 20, 21, 1, 0, 0, 0, [1, 1, 1, 1, 1, 1, 1, 1]>, <22, 21, 22, 1, 0, 0, 0, [1, 1, 1, 1, 1, 1, 1, 1]>, <23, 22, 23, 1, 0, 0, 0, [1, 1, 1, 1, 1, 1, 1, 1]>, <24, 23, 24, 1, 0, 0, 0, [1, 1, 1, 1, 1, 1, 1, 1]>, <25, 24, 25, 1, 0, 0, 0, [1, 1, 1, 1, 1, 1, 1, 1]>, <26, 25, 26, 1, 0, 0, 0, [1, 1, 1, 1, 1, 1, 1, 1]>, <27, 26, 27, 1, 0, 0, 0, [1, 1, 1, 1, 1, 1, 1, 1]>, <28, 27, 28, 1, 0, 0, 0, [1, 1, 1, 1, 1, 1, 1, 1]>, <29, 28, 29, 1, 0, 0, 0, [1, 1, 1, 1, 1, 1, 1, 1]>, <30, 1, 12, 11, 1, 1, 0, [0, 0, 0, 0, 1, 1, 1, 1]>, <31, 2, 13, 11, 1, 1, 0, [0, 0, 0, 0, 1, 1, 1, 1]>, <32, 3, 14, 11, 1, 1, 0, [0, 0, 0, 0, 1, 1, 1, 1]>, <33, 4, 15, 11, 1, 1, 0, [0, 0, 0, 0, 1, 1, 1, 1]>, <34, 5, 16, 11, 1, 1, 0, [0, 0, 0, 0, 1, 1, 1, 1]>, <35, 9, 20, 11, 1, 1, 0, [0, 0, 0, 0, 1, 1, 1, 1]>, <36, 10, 21, 11, 1, 1, 0, [0, 0, 0, 0, 1, 1, 1, 1]>, <37, 11, 22, 11, 1, 1, 0, [0, 0, 0, 0, 1, 1, 1, 1]>, <38, 12, 23, 11, 1, 1, 0, [0, 0, 0, 0, 1, 1, 1, 1]>, <39, 13, 24, 11, 1, 1, 0, [0, 0, 0, 0, 1, 1, 1, 1]>, <40, 14, 25, 11, 1, 1, 0, [0, 0, 0, 0, 1, 1, 1, 1]>, <41, 15, 26, 11, 1, 1, 0, [0, 0, 0, 0, 1, 1, 1, 1]>, <42, 16, 27, 11, 1, 1, 0, [0, 0, 0, 0, 1, 1, 1, 1]>, <43, 17, 28, 11, 1, 1, 0, [0, 0, 0, 0, 1, 1, 1, 1]>, <44, 18, 29, 11, 1, 1, 0, [0, 0, 0, 0, 1, 1, 1, 1]>, <45, 0, 13, 13, 2, 1, 0, [1, 1, 1, 0, 0, 0, 0, 1]>, <46, 1, 14, 13, 2, 1, 0, [1, 1, 1, 0, 0, 0, 0, 1]>, <47, 2, 15, 13, 2, 1, 0, [1, 1, 1, 0, 0, 0, 0, 1]>, <48, 3, 16, 13, 2, 1, 0, [1, 1, 1, 0, 0, 0, 0, 1]>, <49, 4, 17, 13, 2, 1, 0, [1, 1, 1, 0, 0, 0, 0, 1]>, <50, 5, 18, 13, 2, 1, 0, [1, 1, 1, 0, 0, 0, 0, 1]>, <51, 7, 20, 13, 2, 1, 0, [1, 1, 1, 0, 0, 0, 0, 1]>, <52, 8, 21, 13, 2, 1, 0, [1, 1, 1, 0, 0, 0, 0, 1]>, <53, 9, 22, 13, 2, 1, 0, [1, 1, 1, 0, 0, 0, 0, 1]>, <54, 10, 23, 13, 2, 1, 0, [1, 1, 1, 0, 0, 0, 0, 1]>, <55, 11, 24, 13, 2, 1, 0, [1, 1, 1, 0, 0, 0, 0, 1]>, <56, 12, 25, 13, 2, 1, 0, [1, 1, 1, 0, 0, 0, 0, 1]>, <57, 13, 26, 13, 2, 1, 0, [1, 1, 1, 0, 0, 0, 0, 1]>, <58, 14, 27, 13, 2, 1, 0, [1, 1, 1, 0, 0, 0, 0, 1]>, <59, 15, 28, 13, 2, 1, 0, [1, 1, 1, 0, 0, 0, 0, 1]>, <60, 16, 29, 13, 2, 1, 0, [1, 1, 1, 0, 0, 0, 0, 1]>, <61, 0, 13, 13, 3, 0, 0, [1, 1, 1, 0, 0, 0, 0, 1]>, <62, 1, 14, 13, 3, 0, 0, [1, 1, 1, 0, 0, 0, 0, 1]>, <63, 2, 15, 13, 3, 0, 0, [1, 1, 1, 0, 0, 0, 0, 1]>, <64, 3, 16, 13, 3, 0, 0, [1, 1, 1, 0, 0, 0, 0, 1]>, <65, 4, 17, 13, 3, 0, 0, [1, 1, 1, 0, 0, 0, 0, 1]>, <66, 5, 18, 13, 3, 0, 0, [1, 1, 1, 0, 0, 0, 0, 1]>, <67, 7, 20, 13, 3, 0, 0, [1, 1, 1, 0, 0, 0, 0, 1]>, <68, 8, 21, 13, 3, 0, 0, [1, 1, 1, 0, 0, 0, 0, 1]>, <69, 9, 22, 13, 3, 0, 0, [1, 1, 1, 0, 0, 0, 0, 1]>, <70, 10, 23, 13, 3, 0, 0, [1, 1, 1, 0, 0, 0, 0, 1]>, <71, 11, 24, 13, 3, 0, 0, [1, 1, 1, 0, 0, 0, 0, 1]>, <72, 12, 25, 13, 3, 0, 0, [1, 1, 1, 0, 0, 0, 0, 1]>, <73, 13, 26, 13, 3, 0, 0, [1, 1, 1, 0, 0, 0, 0, 1]>, <74, 14, 27, 13, 3, 0, 0, [1, 1, 1, 0, 0, 0, 0, 1]>, <75, 15, 28, 13, 3, 0, 0, [1, 1, 1, 0, 0, 0, 0, 1]>, <76, 16, 29, 13, 3, 0, 0, [1, 1, 1, 0, 0, 0, 0, 1]>, <77, 0, 12, 12, 4, 0, 1, [0, 1, 1, 1, 1, 0, 0, 0]>, <78, 1, 13, 12, 4, 0, 1, [0, 1, 1, 1, 1, 0, 0, 0]>, <79, 2, 14, 12, 4, 0, 1, [0, 1, 1, 1, 1, 0, 0, 0]>, <80, 3, 15, 12, 4, 0, 1, [0, 1, 1, 1, 1, 0, 0, 0]>, <81, 4, 16, 12, 4, 0, 1, [0, 1, 1, 1, 1, 0, 0, 0]>, <82, 5, 17, 12, 4, 0, 1, [0, 1, 1, 1, 1, 0, 0, 0]>, <83, 8, 20, 12, 4, 0, 1, [0, 1, 1, 1, 1, 0, 0, 0]>, <84, 9, 21, 12, 4, 0, 1, [0, 1, 1, 1, 1, 0, 0, 0]>, <85, 10, 22, 12, 4, 0, 1, [0, 1, 1, 1, 1, 0, 0, 0]>, <86, 11, 23, 12, 4, 0, 1, [0, 1, 1, 1, 1, 0, 0, 0]>, <87, 12, 24, 12, 4, 0, 1, [0, 1, 1, 1, 1, 0, 0, 0]>, <88, 13, 25, 12, 4, 0, 1, [0, 1, 1, 1, 1, 0, 0, 0]>, <89, 14, 26, 12, 4, 0, 1, [0, 1, 1, 1, 1, 0, 0, 0]>, <90, 15, 27, 12, 4, 0, 1, [0, 1, 1, 1, 1, 0, 0, 0]>, <91, 16, 28, 12, 4, 0, 1, [0, 1, 1, 1, 1, 0, 0, 0]>, <92, 17, 29, 12, 4, 0, 1, [0, 1, 1, 1, 1, 0, 0, 0]>, <93, 0, 12, 12, 5, 0, 0, [1, 1, 1, 0, 0, 0, 0, 1]>, <94, 1, 13, 12, 5, 0, 0, [1, 1, 1, 0, 0, 0, 0, 1]>, <95, 2, 14, 12, 5, 0, 0, [1, 1, 1, 0, 0, 0, 0, 1]>, <96, 3, 15, 12, 5, 0, 0, [1, 1, 1, 0, 0, 0, 0, 1]>, <97, 4, 16, 12, 5, 0, 0, [1, 1, 1, 0, 0, 0, 0, 1]>, <98, 5, 17, 12, 5, 0, 0, [1, 1, 1, 0, 0, 0, 0, 1]>, <99, 8, 20, 12, 5, 0, 0, [1, 1, 1, 0, 0, 0, 0, 1]>, <100, 9, 21, 12, 5, 0, 0, [1, 1, 1, 0, 0, 0, 0, 1]>, <101, 10, 22, 12, 5, 0, 0, [1, 1, 1, 0, 0, 0, 0, 1]>, <102, 11, 23, 12, 5, 0, 0, [1, 1, 1, 0, 0, 0, 0, 1]>, <103, 12, 24, 12, 5, 0, 0, [1, 1, 1, 0, 0, 0, 0, 1]>, <104, 13, 25, 12, 5, 0, 0, [1, 1, 1, 0, 0, 0, 0, 1]>, <105, 14, 26, 12, 5, 0, 0, [1, 1, 1, 0, 0, 0, 0, 1]>, <106, 15, 27, 12, 5, 0, 0, [1, 1, 1, 0, 0, 0, 0, 1]>, <107, 16, 28, 12, 5, 0, 0, [1, 1, 1, 0, 0, 0, 0, 1]>, <108, 17, 29, 12, 5, 0, 0, [1, 1, 1, 0, 0, 0, 0, 1]>, <109, 0, 12, 12, 6, 0, 0, [0, 0, 0, 0, 1, 1, 1, 1]>, <110, 1, 13, 12, 6, 0, 0, [0, 0, 0, 0, 1, 1, 1, 1]>, <111, 2, 14, 12, 6, 0, 0, [0, 0, 0, 0, 1, 1, 1, 1]>, <112, 3, 15, 12, 6, 0, 0, [0, 0, 0, 0, 1, 1, 1, 1]>, <113, 4, 16, 12, 6, 0, 0, [0, 0, 0, 0, 1, 1, 1, 1]>, <114, 5, 17, 12, 6, 0, 0, [0, 0, 0, 0, 1, 1, 1, 1]>, <115, 8, 20, 12, 6, 0, 0, [0, 0, 0, 0, 1, 1, 1, 1]>, <116, 9, 21, 12, 6, 0, 0, [0, 0, 0, 0, 1, 1, 1, 1]>, <117, 10, 22, 12, 6, 0, 0, [0, 0, 0, 0, 1, 1, 1, 1]>, <118, 11, 23, 12, 6, 0, 0, [0, 0, 0, 0, 1, 1, 1, 1]>, <119, 12, 24, 12, 6, 0, 0, [0, 0, 0, 0, 1, 1, 1, 1]>, <120, 13, 25, 12, 6, 0, 0, [0, 0, 0, 0, 1, 1, 1, 1]>, <121, 14, 26, 12, 6, 0, 0, [0, 0, 0, 0, 1, 1, 1, 1]>, <122, 15, 27, 12, 6, 0, 0, [0, 0, 0, 0, 1, 1, 1, 1]>, <123, 16, 28, 12, 6, 0, 0, [0, 0, 0, 0, 1, 1, 1, 1]>, <124, 17, 29, 12, 6, 0, 0, [0, 0, 0, 0, 1, 1, 1, 1]>, <125, 0, 13, 13, 7, 0, 0, [0, 0, 0, 1, 1, 1, 1, 0]>, <126, 1, 14, 13, 7, 0, 0, [0, 0, 0, 1, 1, 1, 1, 0]>, <127, 2, 15, 13, 7, 0, 0, [0, 0, 0, 1, 1, 1, 1, 0]>, <128, 3, 16, 13, 7, 0, 0, [0, 0, 0, 1, 1, 1, 1, 0]>, <129, 4, 17, 13, 7, 0, 0, [0, 0, 0, 1, 1, 1, 1, 0]>, <130, 5, 18, 13, 7, 0, 0, [0, 0, 0, 1, 1, 1, 1, 0]>, <131, 7, 20, 13, 7, 0, 0, [0, 0, 0, 1, 1, 1, 1, 0]>, <132, 8, 21, 13, 7, 0, 0, [0, 0, 0, 1, 1, 1, 1, 0]>, <133, 9, 22, 13, 7, 0, 0, [0, 0, 0, 1, 1, 1, 1, 0]>, <134, 10, 23, 13, 7, 0, 0, [0, 0, 0, 1, 1, 1, 1, 0]>, <135, 11, 24, 13, 7, 0, 0, [0, 0, 0, 1, 1, 1, 1, 0]>, <136, 12, 25, 13, 7, 0, 0, [0, 0, 0, 1, 1, 1, 1, 0]>, <137, 13, 26, 13, 7, 0, 0, [0, 0, 0, 1, 1, 1, 1, 0]>, <138, 14, 27, 13, 7, 0, 0, [0, 0, 0, 1, 1, 1, 1, 0]>, <139, 15, 28, 13, 7, 0, 0, [0, 0, 0, 1, 1, 1, 1, 0]>, <140, 16, 29, 13, 7, 0, 0, [0, 0, 0, 1, 1, 1, 1, 0]>, <141, 1, 12, 11, 8, 0, 1, [0, 1, 1, 1, 1, 0, 0, 0]>, <142, 2, 13, 11, 8, 0, 1, [0, 1, 1, 1, 1, 0, 0, 0]>, <143, 3, 14, 11, 8, 0, 1, [0, 1, 1, 1, 1, 0, 0, 0]>, <144, 4, 15, 11, 8, 0, 1, [0, 1, 1, 1, 1, 0, 0, 0]>, <145, 5, 16, 11, 8, 0, 1, [0, 1, 1, 1, 1, 0, 0, 0]>, <146, 9, 20, 11, 8, 0, 1, [0, 1, 1, 1, 1, 0, 0, 0]>, <147, 10, 21, 11, 8, 0, 1, [0, 1, 1, 1, 1, 0, 0, 0]>, <148, 11, 22, 11, 8, 0, 1, [0, 1, 1, 1, 1, 0, 0, 0]>, <149, 12, 23, 11, 8, 0, 1, [0, 1, 1, 1, 1, 0, 0, 0]>, <150, 13, 24, 11, 8, 0, 1, [0, 1, 1, 1, 1, 0, 0, 0]>, <151, 14, 25, 11, 8, 0, 1, [0, 1, 1, 1, 1, 0, 0, 0]>, <152, 15, 26, 11, 8, 0, 1, [0, 1, 1, 1, 1, 0, 0, 0]>, <153, 16, 27, 11, 8, 0, 1, [0, 1, 1, 1, 1, 0, 0, 0]>, <154, 17, 28, 11, 8, 0, 1, [0, 1, 1, 1, 1, 0, 0, 0]>, <155, 18, 29, 11, 8, 0, 1, [0, 1, 1, 1, 1, 0, 0, 0]>, <156, 2, 12, 10, 9, 0, 0, [1, 1, 1, 1, 0, 0, 0, 0]>, <157, 3, 13, 10, 9, 0, 0, [1, 1, 1, 1, 0, 0, 0, 0]>, <158, 4, 14, 10, 9, 0, 0, [1, 1, 1, 1, 0, 0, 0, 0]>, <159, 5, 15, 10, 9, 0, 0, [1, 1, 1, 1, 0, 0, 0, 0]>, <160, 10, 20, 10, 9, 0, 0, [1, 1, 1, 1, 0, 0, 0, 0]>, <161, 11, 21, 10, 9, 0, 0, [1, 1, 1, 1, 0, 0, 0, 0]>, <162, 12, 22, 10, 9, 0, 0, [1, 1, 1, 1, 0, 0, 0, 0]>, <163, 14, 24, 10, 9, 0, 0, [1, 1, 1, 1, 0, 0, 0, 0]>, <164, 15, 25, 10, 9, 0, 0, [1, 1, 1, 1, 0, 0, 0, 0]>, <165, 16, 26, 10, 9, 0, 0, [1, 1, 1, 1, 0, 0, 0, 0]>, <166, 17, 27, 10, 9, 0, 0, [1, 1, 1, 1, 0, 0, 0, 0]>, <167, 18, 28, 10, 9, 0, 0, [1, 1, 1, 1, 0, 0, 0, 0]>, <168, 19, 29, 10, 9, 0, 0, [1, 1, 1, 1, 0, 0, 0, 0]>, <169, 2, 12, 10, 10, 0, 1, [0, 0, 0, 1, 1, 1, 1, 0]>, <170, 3, 13, 10, 10, 0, 1, [0, 0, 0, 1, 1, 1, 1, 0]>, <171, 4, 14, 10, 10, 0, 1, [0, 0, 0, 1, 1, 1, 1, 0]>, <172, 5, 15, 10, 10, 0, 1, [0, 0, 0, 1, 1, 1, 1, 0]>, <173, 10, 20, 10, 10, 0, 1, [0, 0, 0, 1, 1, 1, 1, 0]>, <174, 11, 21, 10, 10, 0, 1, [0, 0, 0, 1, 1, 1, 1, 0]>, <175, 12, 22, 10, 10, 0, 1, [0, 0, 0, 1, 1, 1, 1, 0]>, <176, 14, 24, 10, 10, 0, 1, [0, 0, 0, 1, 1, 1, 1, 0]>, <177, 15, 25, 10, 10, 0, 1, [0, 0, 0, 1, 1, 1, 1, 0]>, <178, 16, 26, 10, 10, 0, 1, [0, 0, 0, 1, 1, 1, 1, 0]>, <179, 17, 27, 10, 10, 0, 1, [0, 0, 0, 1, 1, 1, 1, 0]>, <180, 18, 28, 10, 10, 0, 1, [0, 0, 0, 1, 1, 1, 1, 0]>, <181, 19, 29, 10, 10, 0, 1, [0, 0, 0, 1, 1, 1, 1, 0]>, <182, 0, 14, 14, 11, 0, 1, [1, 1, 1, 1, 0, 0, 0, 0]>, <183, 1, 15, 14, 11, 0, 1, [1, 1, 1, 1, 0, 0, 0, 0]>, <184, 2, 16, 14, 11, 0, 1, [1, 1, 1, 1, 0, 0, 0, 0]>, <185, 3, 17, 14, 11, 0, 1, [1, 1, 1, 1, 0, 0, 0, 0]>, <186, 4, 18, 14, 11, 0, 1, [1, 1, 1, 1, 0, 0, 0, 0]>, <187, 5, 19, 14, 11, 0, 1, [1, 1, 1, 1, 0, 0, 0, 0]>, <188, 6, 20, 14, 11, 0, 1, [1, 1, 1, 1, 0, 0, 0, 0]>, <189, 7, 21, 14, 11, 0, 1, [1, 1, 1, 1, 0, 0, 0, 0]>, <190, 8, 22, 14, 11, 0, 1, [1, 1, 1, 1, 0, 0, 0, 0]>, <191, 9, 23, 14, 11, 0, 1, [1, 1, 1, 1, 0, 0, 0, 0]>, <192, 10, 24, 14, 11, 0, 1, [1, 1, 1, 1, 0, 0, 0, 0]>, <193, 11, 25, 14, 11, 0, 1, [1, 1, 1, 1, 0, 0, 0, 0]>, <194, 12, 26, 14, 11, 0, 1, [1, 1, 1, 1, 0, 0, 0, 0]>, <195, 13, 27, 14, 11, 0, 1, [1, 1, 1, 1, 0, 0, 0, 0]>, <196, 14, 28, 14, 11, 0, 1, [1, 1, 1, 1, 0, 0, 0, 0]>, <197, 15, 29, 14, 11, 0, 1, [1, 1, 1, 1, 0, 0, 0, 0]>, <198, 0, 13, 13, 12, 1, 0, [0, 0, 0, 0, 1, 1, 1, 1]>, <199, 1, 14, 13, 12, 1, 0, [0, 0, 0, 0, 1, 1, 1, 1]>, <200, 2, 15, 13, 12, 1, 0, [0, 0, 0, 0, 1, 1, 1, 1]>, <201, 3, 16, 13, 12, 1, 0, [0, 0, 0, 0, 1, 1, 1, 1]>, <202, 4, 17, 13, 12, 1, 0, [0, 0, 0, 0, 1, 1, 1, 1]>, <203, 5, 18, 13, 12, 1, 0, [0, 0, 0, 0, 1, 1, 1, 1]>, <204, 7, 20, 13, 12, 1, 0, [0, 0, 0, 0, 1, 1, 1, 1]>, <205, 8, 21, 13, 12, 1, 0, [0, 0, 0, 0, 1, 1, 1, 1]>, <206, 9, 22, 13, 12, 1, 0, [0, 0, 0, 0, 1, 1, 1, 1]>, <207, 10, 23, 13, 12, 1, 0, [0, 0, 0, 0, 1, 1, 1, 1]>, <208, 11, 24, 13, 12, 1, 0, [0, 0, 0, 0, 1, 1, 1, 1]>, <209, 12, 25, 13, 12, 1, 0, [0, 0, 0, 0, 1, 1, 1, 1]>, <210, 13, 26, 13, 12, 1, 0, [0, 0, 0, 0, 1, 1, 1, 1]>, <211, 14, 27, 13, 12, 1, 0, [0, 0, 0, 0, 1, 1, 1, 1]>, <212, 15, 28, 13, 12, 1, 0, [0, 0, 0, 0, 1, 1, 1, 1]>, <213, 16, 29, 13, 12, 1, 0, [0, 0, 0, 0, 1, 1, 1, 1]>, <214, 0, 12, 12, 13, 0, 0, [0, 0, 0, 1, 1, 1, 1, 0]>, <215, 1, 13, 12, 13, 0, 0, [0, 0, 0, 1, 1, 1, 1, 0]>, <216, 2, 14, 12, 13, 0, 0, [0, 0, 0, 1, 1, 1, 1, 0]>, <217, 3, 15, 12, 13, 0, 0, [0, 0, 0, 1, 1, 1, 1, 0]>, <218, 4, 16, 12, 13, 0, 0, [0, 0, 0, 1, 1, 1, 1, 0]>, <219, 5, 17, 12, 13, 0, 0, [0, 0, 0, 1, 1, 1, 1, 0]>, <220, 8, 20, 12, 13, 0, 0, [0, 0, 0, 1, 1, 1, 1, 0]>, <221, 9, 21, 12, 13, 0, 0, [0, 0, 0, 1, 1, 1, 1, 0]>, <222, 10, 22, 12, 13, 0, 0, [0, 0, 0, 1, 1, 1, 1, 0]>, <223, 11, 23, 12, 13, 0, 0, [0, 0, 0, 1, 1, 1, 1, 0]>, <224, 12, 24, 12, 13, 0, 0, [0, 0, 0, 1, 1, 1, 1, 0]>, <225, 13, 25, 12, 13, 0, 0, [0, 0, 0, 1, 1, 1, 1, 0]>, <226, 14, 26, 12, 13, 0, 0, [0, 0, 0, 1, 1, 1, 1, 0]>, <227, 15, 27, 12, 13, 0, 0, [0, 0, 0, 1, 1, 1, 1, 0]>, <228, 16, 28, 12, 13, 0, 0, [0, 0, 0, 1, 1, 1, 1, 0]>, <229, 17, 29, 12, 13, 0, 0, [0, 0, 0, 1, 1, 1, 1, 0]>, <230, 0, 13, 13, 14, 0, 0, [1, 1, 0, 0, 0, 0, 1, 1]>, <231, 1, 14, 13, 14, 0, 0, [1, 1, 0, 0, 0, 0, 1, 1]>, <232, 2, 15, 13, 14, 0, 0, [1, 1, 0, 0, 0, 0, 1, 1]>, <233, 3, 16, 13, 14, 0, 0, [1, 1, 0, 0, 0, 0, 1, 1]>, <234, 4, 17, 13, 14, 0, 0, [1, 1, 0, 0, 0, 0, 1, 1]>, <235, 5, 18, 13, 14, 0, 0, [1, 1, 0, 0, 0, 0, 1, 1]>, <236, 7, 20, 13, 14, 0, 0, [1, 1, 0, 0, 0, 0, 1, 1]>, <237, 8, 21, 13, 14, 0, 0, [1, 1, 0, 0, 0, 0, 1, 1]>, <238, 9, 22, 13, 14, 0, 0, [1, 1, 0, 0, 0, 0, 1, 1]>, <239, 10, 23, 13, 14, 0, 0, [1, 1, 0, 0, 0, 0, 1, 1]>, <240, 11, 24, 13, 14, 0, 0, [1, 1, 0, 0, 0, 0, 1, 1]>, <241, 12, 25, 13, 14, 0, 0, [1, 1, 0, 0, 0, 0, 1, 1]>, <242, 13, 26, 13, 14, 0, 0, [1, 1, 0, 0, 0, 0, 1, 1]>, <243, 14, 27, 13, 14, 0, 0, [1, 1, 0, 0, 0, 0, 1, 1]>, <244, 15, 28, 13, 14, 0, 0, [1, 1, 0, 0, 0, 0, 1, 1]>, <245, 16, 29, 13, 14, 0, 0, [1, 1, 0, 0, 0, 0, 1, 1]>, <246, 0, 15, 15, 15, 0, 0, [0, 0, 0, 1, 1, 1, 1, 0]>, <247, 1, 16, 15, 15, 0, 0, [0, 0, 0, 1, 1, 1, 1, 0]>, <248, 2, 17, 15, 15, 0, 0, [0, 0, 0, 1, 1, 1, 1, 0]>, <249, 3, 18, 15, 15, 0, 0, [0, 0, 0, 1, 1, 1, 1, 0]>, <250, 4, 19, 15, 15, 0, 0, [0, 0, 0, 1, 1, 1, 1, 0]>, <251, 5, 20, 15, 15, 0, 0, [0, 0, 0, 1, 1, 1, 1, 0]>, <252, 6, 21, 15, 15, 0, 0, [0, 0, 0, 1, 1, 1, 1, 0]>, <253, 7, 22, 15, 15, 0, 0, [0, 0, 0, 1, 1, 1, 1, 0]>, <254, 8, 23, 15, 15, 0, 0, [0, 0, 0, 1, 1, 1, 1, 0]>, <255, 9, 24, 15, 15, 0, 0, [0, 0, 0, 1, 1, 1, 1, 0]>, <256, 10, 25, 15, 15, 0, 0, [0, 0, 0, 1, 1, 1, 1, 0]>, <257, 11, 26, 15, 15, 0, 0, [0, 0, 0, 1, 1, 1, 1, 0]>, <258, 12, 27, 15, 15, 0, 0, [0, 0, 0, 1, 1, 1, 1, 0]>, <259, 13, 28, 15, 15, 0, 0, [0, 0, 0, 1, 1, 1, 1, 0]>, <260, 14, 29, 15, 15, 0, 0, [0, 0, 0, 1, 1, 1, 1, 0]>, <261, 0, 14, 14, 16, 0, 1, [0, 0, 1, 1, 1, 1, 0, 0]>, <262, 1, 15, 14, 16, 0, 1, [0, 0, 1, 1, 1, 1, 0, 0]>, <263, 2, 16, 14, 16, 0, 1, [0, 0, 1, 1, 1, 1, 0, 0]>, <264, 3, 17, 14, 16, 0, 1, [0, 0, 1, 1, 1, 1, 0, 0]>, <265, 4, 18, 14, 16, 0, 1, [0, 0, 1, 1, 1, 1, 0, 0]>, <266, 5, 19, 14, 16, 0, 1, [0, 0, 1, 1, 1, 1, 0, 0]>, <267, 6, 20, 14, 16, 0, 1, [0, 0, 1, 1, 1, 1, 0, 0]>, <268, 7, 21, 14, 16, 0, 1, [0, 0, 1, 1, 1, 1, 0, 0]>, <269, 8, 22, 14, 16, 0, 1, [0, 0, 1, 1, 1, 1, 0, 0]>, <270, 9, 23, 14, 16, 0, 1, [0, 0, 1, 1, 1, 1, 0, 0]>, <271, 10, 24, 14, 16, 0, 1, [0, 0, 1, 1, 1, 1, 0, 0]>, <272, 11, 25, 14, 16, 0, 1, [0, 0, 1, 1, 1, 1, 0, 0]>, <273, 12, 26, 14, 16, 0, 1, [0, 0, 1, 1, 1, 1, 0, 0]>, <274, 13, 27, 14, 16, 0, 1, [0, 0, 1, 1, 1, 1, 0, 0]>, <275, 14, 28, 14, 16, 0, 1, [0, 0, 1, 1, 1, 1, 0, 0]>, <276, 15, 29, 14, 16, 0, 1, [0, 0, 1, 1, 1, 1, 0, 0]>, <277, 2, 12, 10, 17, 0, 0, [1, 1, 1, 1, 0, 0, 0, 0]>, <278, 3, 13, 10, 17, 0, 0, [1, 1, 1, 1, 0, 0, 0, 0]>, <279, 4, 14, 10, 17, 0, 0, [1, 1, 1, 1, 0, 0, 0, 0]>, <280, 5, 15, 10, 17, 0, 0, [1, 1, 1, 1, 0, 0, 0, 0]>, <281, 10, 20, 10, 17, 0, 0, [1, 1, 1, 1, 0, 0, 0, 0]>, <282, 11, 21, 10, 17, 0, 0, [1, 1, 1, 1, 0, 0, 0, 0]>, <283, 12, 22, 10, 17, 0, 0, [1, 1, 1, 1, 0, 0, 0, 0]>, <284, 14, 24, 10, 17, 0, 0, [1, 1, 1, 1, 0, 0, 0, 0]>, <285, 15, 25, 10, 17, 0, 0, [1, 1, 1, 1, 0, 0, 0, 0]>, <286, 16, 26, 10, 17, 0, 0, [1, 1, 1, 1, 0, 0, 0, 0]>, <287, 17, 27, 10, 17, 0, 0, [1, 1, 1, 1, 0, 0, 0, 0]>, <288, 18, 28, 10, 17, 0, 0, [1, 1, 1, 1, 0, 0, 0, 0]>, <289, 19, 29, 10, 17, 0, 0, [1, 1, 1, 1, 0, 0, 0, 0]>, <290, 0, 13, 13, 18, 0, 1, [0, 0, 0, 1, 1, 1, 1, 0]>, <291, 1, 14, 13, 18, 0, 1, [0, 0, 0, 1, 1, 1, 1, 0]>, <292, 2, 15, 13, 18, 0, 1, [0, 0, 0, 1, 1, 1, 1, 0]>, <293, 3, 16, 13, 18, 0, 1, [0, 0, 0, 1, 1, 1, 1, 0]>, <294, 4, 17, 13, 18, 0, 1, [0, 0, 0, 1, 1, 1, 1, 0]>, <295, 5, 18, 13, 18, 0, 1, [0, 0, 0, 1, 1, 1, 1, 0]>, <296, 7, 20, 13, 18, 0, 1, [0, 0, 0, 1, 1, 1, 1, 0]>, <297, 8, 21, 13, 18, 0, 1, [0, 0, 0, 1, 1, 1, 1, 0]>, <298, 9, 22, 13, 18, 0, 1, [0, 0, 0, 1, 1, 1, 1, 0]>, <299, 10, 23, 13, 18, 0, 1, [0, 0, 0, 1, 1, 1, 1, 0]>, <300, 11, 24, 13, 18, 0, 1, [0, 0, 0, 1, 1, 1, 1, 0]>, <301, 12, 25, 13, 18, 0, 1, [0, 0, 0, 1, 1, 1, 1, 0]>, <302, 13, 26, 13, 18, 0, 1, [0, 0, 0, 1, 1, 1, 1, 0]>, <303, 14, 27, 13, 18, 0, 1, [0, 0, 0, 1, 1, 1, 1, 0]>, <304, 15, 28, 13, 18, 0, 1, [0, 0, 0, 1, 1, 1, 1, 0]>, <305, 16, 29, 13, 18, 0, 1, [0, 0, 0, 1, 1, 1, 1, 0]>, <306, 2, 12, 10, 19, 0, 0, [0, 1, 1, 1, 1, 0, 0, 0]>, <307, 3, 13, 10, 19, 0, 0, [0, 1, 1, 1, 1, 0, 0, 0]>, <308, 4, 14, 10, 19, 0, 0, [0, 1, 1, 1, 1, 0, 0, 0]>, <309, 5, 15, 10, 19, 0, 0, [0, 1, 1, 1, 1, 0, 0, 0]>, <310, 10, 20, 10, 19, 0, 0, [0, 1, 1, 1, 1, 0, 0, 0]>, <311, 11, 21, 10, 19, 0, 0, [0, 1, 1, 1, 1, 0, 0, 0]>, <312, 12, 22, 10, 19, 0, 0, [0, 1, 1, 1, 1, 0, 0, 0]>, <313, 14, 24, 10, 19, 0, 0, [0, 1, 1, 1, 1, 0, 0, 0]>, <314, 15, 25, 10, 19, 0, 0, [0, 1, 1, 1, 1, 0, 0, 0]>, <315, 16, 26, 10, 19, 0, 0, [0, 1, 1, 1, 1, 0, 0, 0]>, <316, 17, 27, 10, 19, 0, 0, [0, 1, 1, 1, 1, 0, 0, 0]>, <317, 18, 28, 10, 19, 0, 0, [0, 1, 1, 1, 1, 0, 0, 0]>, <318, 19, 29, 10, 19, 0, 0, [0, 1, 1, 1, 1, 0, 0, 0]>, <319, 0, 13, 13, 20, 0, 1, [0, 0, 0, 0, 1, 1, 1, 1]>, <320, 1, 14, 13, 20, 0, 1, [0, 0, 0, 0, 1, 1, 1, 1]>, <321, 2, 15, 13, 20, 0, 1, [0, 0, 0, 0, 1, 1, 1, 1]>, <322, 3, 16, 13, 20, 0, 1, [0, 0, 0, 0, 1, 1, 1, 1]>, <323, 4, 17, 13, 20, 0, 1, [0, 0, 0, 0, 1, 1, 1, 1]>, <324, 5, 18, 13, 20, 0, 1, [0, 0, 0, 0, 1, 1, 1, 1]>, <325, 7, 20, 13, 20, 0, 1, [0, 0, 0, 0, 1, 1, 1, 1]>, <326, 8, 21, 13, 20, 0, 1, [0, 0, 0, 0, 1, 1, 1, 1]>, <327, 9, 22, 13, 20, 0, 1, [0, 0, 0, 0, 1, 1, 1, 1]>, <328, 10, 23, 13, 20, 0, 1, [0, 0, 0, 0, 1, 1, 1, 1]>, <329, 11, 24, 13, 20, 0, 1, [0, 0, 0, 0, 1, 1, 1, 1]>, <330, 12, 25, 13, 20, 0, 1, [0, 0, 0, 0, 1, 1, 1, 1]>, <331, 13, 26, 13, 20, 0, 1, [0, 0, 0, 0, 1, 1, 1, 1]>, <332, 14, 27, 13, 20, 0, 1, [0, 0, 0, 0, 1, 1, 1, 1]>, <333, 15, 28, 13, 20, 0, 1, [0, 0, 0, 0, 1, 1, 1, 1]>, <334, 16, 29, 13, 20, 0, 1, [0, 0, 0, 0, 1, 1, 1, 1]>, <335, 0, 14, 14, 21, 0, 0, [1, 1, 0, 0, 0, 0, 1, 1]>, <336, 1, 15, 14, 21, 0, 0, [1, 1, 0, 0, 0, 0, 1, 1]>, <337, 2, 16, 14, 21, 0, 0, [1, 1, 0, 0, 0, 0, 1, 1]>, <338, 3, 17, 14, 21, 0, 0, [1, 1, 0, 0, 0, 0, 1, 1]>, <339, 4, 18, 14, 21, 0, 0, [1, 1, 0, 0, 0, 0, 1, 1]>, <340, 5, 19, 14, 21, 0, 0, [1, 1, 0, 0, 0, 0, 1, 1]>, <341, 6, 20, 14, 21, 0, 0, [1, 1, 0, 0, 0, 0, 1, 1]>, <342, 7, 21, 14, 21, 0, 0, [1, 1, 0, 0, 0, 0, 1, 1]>, <343, 8, 22, 14, 21, 0, 0, [1, 1, 0, 0, 0, 0, 1, 1]>, <344, 9, 23, 14, 21, 0, 0, [1, 1, 0, 0, 0, 0, 1, 1]>, <345, 10, 24, 14, 21, 0, 0, [1, 1, 0, 0, 0, 0, 1, 1]>, <346, 11, 25, 14, 21, 0, 0, [1, 1, 0, 0, 0, 0, 1, 1]>, <347, 12, 26, 14, 21, 0, 0, [1, 1, 0, 0, 0, 0, 1, 1]>, <348, 13, 27, 14, 21, 0, 0, [1, 1, 0, 0, 0, 0, 1, 1]>, <349, 14, 28, 14, 21, 0, 0, [1, 1, 0, 0, 0, 0, 1, 1]>, <350, 15, 29, 14, 21, 0, 0, [1, 1, 0, 0, 0, 0, 1, 1]>};
